Gurobi Optimizer version 9.1.2 build v9.1.2rc0 (linux64)
Thread count: 36 physical cores, 72 logical processors, using up to 32 threads
Optimize a model with 12 rows, 57 columns and 590 nonzeros
Model fingerprint: 0xf32eec78
Model has 47 quadratic constraints
Coefficient statistics:
  Matrix range     [2e-05, 3e+00]
  QMatrix range    [1e+00, 1e+00]
  QLMatrix range   [1e+00, 1e+00]
  Objective range  [8e-03, 7e-01]
  Bounds range     [1e+00, 1e+00]
  RHS range        [1e+00, 1e+00]
Presolve removed 9 rows and 0 columns

Continuous model is non-convex -- solving as a MIP.

Presolve removed 9 rows and 0 columns
Presolve time: 0.00s
Presolved: 189 rows, 57 columns, 443 nonzeros
Presolved model has 47 bilinear constraint(s)
Variable types: 57 continuous, 0 integer (0 binary)

Root relaxation: objective -1.743721e+00, 44 iterations, 0.00 seconds

    Nodes    |    Current Node    |     Objective Bounds      |     Work
 Expl Unexpl |  Obj  Depth IntInf | Incumbent    BestBd   Gap | It/Node Time

     0     0   -1.74372    0   38          -   -1.74372      -     -    0s
H    0     0                       0.6147548   -1.74372   384%     -    0s
     0     0   -1.64739    0    1    0.61475   -1.64739   368%     -    0s
H    0     0                      -1.6450460   -1.64739  0.14%     -    0s
     0     0     cutoff    0        -1.64505   -1.64505  0.00%     -    0s

Cutting planes:
  RLT: 25
  BQP: 3

Explored 1 nodes (76 simplex iterations) in 0.01 seconds
Thread count was 32 (of 72 available processors)

Solution count 2: -1.64505 0.614755 
No other solutions better than -1.64505

Optimal solution found (tolerance 1.00e-04)
Best objective -1.645045978473e+00, best bound -1.645045978473e+00, gap 0.0000%

User-callback calls 78, time in user-callback 0.00 sec
Gurobi Optimizer version 9.1.2 build v9.1.2rc0 (linux64)
Thread count: 36 physical cores, 72 logical processors, using up to 32 threads
Optimize a model with 24 rows, 120 columns and 2480 nonzeros
Model fingerprint: 0xa919d7d1
Model has 100 quadratic constraints
Coefficient statistics:
  Matrix range     [8e-06, 4e+00]
  QMatrix range    [1e+00, 1e+00]
  QLMatrix range   [1e+00, 1e+00]
  Objective range  [7e-03, 1e+00]
  Bounds range     [1e+00, 1e+00]
  RHS range        [1e+00, 1e+00]
Presolve removed 16 rows and 0 columns

Continuous model is non-convex -- solving as a MIP.

Presolve removed 16 rows and 0 columns
Presolve time: 0.00s
Presolved: 408 rows, 120 columns, 1351 nonzeros
Presolved model has 100 bilinear constraint(s)
Variable types: 120 continuous, 0 integer (0 binary)

Root relaxation: objective -9.511863e+00, 130 iterations, 0.00 seconds

    Nodes    |    Current Node    |     Objective Bounds      |     Work
 Expl Unexpl |  Obj  Depth IntInf | Incumbent    BestBd   Gap | It/Node Time

     0     0   -9.51186    0  100          -   -9.51186      -     -    0s
H    0     0                       1.3822852   -9.51186   788%     -    0s
     0     0   -6.73101    0  100    1.38229   -6.73101   587%     -    0s
H    0     0                       0.5064182   -6.73101  1429%     -    0s
     0     0   -6.72722    0  100    0.50642   -6.72722  1428%     -    0s
     0     0   -5.73281    0   90    0.50642   -5.73281  1232%     -    0s
H    0     0                      -0.5669365   -5.73281   911%     -    0s
     0     0   -5.72533    0   90   -0.56694   -5.72533   910%     -    0s
     0     0   -5.55650    0   90   -0.56694   -5.55650   880%     -    0s
     0     0   -5.52433    0   90   -0.56694   -5.52433   874%     -    0s
     0     0   -5.48805    0   90   -0.56694   -5.48805   868%     -    0s
     0     0   -5.47451    0   90   -0.56694   -5.47451   866%     -    0s
     0     0   -5.45278    0   90   -0.56694   -5.45278   862%     -    0s
     0     0   -5.45268    0   90   -0.56694   -5.45268   862%     -    0s
     0     0   -5.44863    0   90   -0.56694   -5.44863   861%     -    0s
     0     0   -5.44861    0   90   -0.56694   -5.44861   861%     -    0s
     0     0   -5.44744    0   90   -0.56694   -5.44744   861%     -    0s
H    0     0                      -1.9746547   -5.44744   176%     -    0s
H    0     0                      -3.3739878   -5.44744  61.5%     -    0s
H    0     0                      -3.4748195   -5.44744  56.8%     -    0s
     0     2   -5.44744    0   90   -3.47482   -5.44744  56.8%     -    0s
*  942   810              32      -3.9472575   -4.72666  19.7%  36.5    0s
* 1095   830              22      -4.5628549   -4.72666  3.59%  34.4    0s
* 1279   488              23      -4.5628554   -4.63921  1.67%  31.9    0s

Cutting planes:
  RLT: 76
  BQP: 14
  PSD: 12

Explored 1535 nodes (41536 simplex iterations) in 0.60 seconds
Thread count was 32 (of 72 available processors)

Solution count 8: -4.56286 -3.94726 -3.47482 ... 1.38229
No other solutions better than -4.56286

Optimal solution found (tolerance 1.00e-04)
Best objective -4.562855407696e+00, best bound -4.562855407696e+00, gap 0.0000%

User-callback calls 3302, time in user-callback 0.00 sec



objective value: -4.562855407696044
objective bound: -4.562855407696044
x_opt: [0.0, 1.0, 1.0, 0.45126240317751243, 1.0, 0.0, 0.0744091173948263, -1.915134717478395e-15, 0.17893850255691687, 1.0, 0.0, 0.0026198179707329836, 1.0, 1.0, 1.0, 9.367506770274758e-16, 0.0, 0.0, 0.0, 0.0]
GUROBI solution time: 0.5960919857025146




